\ Model SMT_copy
\ LP format - for model browsing. Use MPS format to capture full model detail.
Maximize
 
Subject To
 IC[2,3]: 0.6 x[2] - 0.6 x[3] - 0.6 p[2] + 0.6 p[3] - 0.4 w[2] + 0.4 w[3]
   >= 0
 IC[3,2]: - 0.8 x[2] + 0.8 x[3] + 0.8 p[2] - 0.8 p[3] + 0.2 w[2] - 0.2 w[3]
   >= 0
 supply: x[0] + x[1] + x[2] + x[3] <= 1
 test: x[2] = 1
 no_payment: p[0] + p[1] + p[2] + p[3] = 0
Bounds
 x[2] free
 x[3] free
 p[2] free
 w[2] free
 w[3] free
End
